113 161 58 31 195 89 130 
103 88 184 76 138 17 74 
178 144 8 35 181 187 99 108 
159 38 173 168 172 100 87 107 
190 10 86 194 79 117 
101 78 175 152 6 72 165 59 
148 134 97 126 174 183 
3 177 191 125 71 9 188 
164 66 84 185 140 110 179 149 
104 19 43 91 77 29 92 63 
93 21 54 14 34 142 
120 23 154 24 33 167 67 49 
118 83 141 169 90 109 53 
133 85 27 163 51 1 123 
30 182 102 70 106 121 158 198 
41 48 80 75 200 136 189 
73 5 153 151 37 81 
32 180 46 4 96 52 
62 170 44 69 139 105 15 111 56 
116 119 13 196 145 64 42 
55 26 156 186 127 98 162 
57 129 11 112 122 95 137 
60 135 192 61 157 28 39 
20 197 147 160 132 7 
155 50 146 176 16 
114 65 124 115 94 
82 166 47 25 
171 150 40 2 
45 131 18 22 199 
12 143 193 128 36 
68 

